100
30
31
32
21
25
2
15
32
3
22
8
29
8
28
4
32
3
18
6
21
8
5
5
2
16
19
4
9
9
14
16
20
1
31
32
22
2
25
2
3
6
5
32
13
3
6
4
16
7
31
6
4
21
15
5
1
6
11
5
29
8
6
5
32
20
12
32
15
3
15
30
13
23
10
15
14
5
2
21
2
32
8
22
7
11
20
3
16
18
3
1
8
32
27
31
1
14
15
9
1
2